
  22   10
  10   10   10   10   10   10   10   10   10   10

   0   0   0   0   0   0   0   0   0   0   0  15 2 3 4 5 11 12 13 14 15 16 17 18 19 20 21 
   9   0   0   0   0   0   0  10   0   0   0   3 10 7 6 
   4   0   0   0   0   0  10   0   0   0   0   2 9 7 
   5  10   0   0   0   0   0   0   0   0   0   1 8 
   6   0   0   0   0   0   0   0   0   0  10   1 6 
   2   0  10   0   0   0   0   0   0   0   0   1 22
   5   0   0   0  10   0   0   0   0   0   0   1 22
   8   0   0  10   0   0   0   0   0   0   0   1 22
   7   0   0   0   0   0   0  10   0   0   0   1 22
   8   0   0   0   0   0   0   0   0   0  10   1 22
   9   0  10   0   0   0   0   0   0   0   0   1 22
   9   0   0   0   0   0   0   0  10   0   0   1 22
   5   0   0   0  10   0   0   0   0   0   0   1 22
   7   0   0   0   0   0  10   0   0   0   0   1 22
  10   0   0   0  10   0   0   0   0   0   0   1 22
   7   0   0  10   0   0   0   0   0   0   0   1 22
  10   0   0   0   0   0  10   0   0   0   0   1 22
   2   0   0   0   0   0   0  10   0   0   0   1 22
  10   0  10   0   0   0   0   0   0   0   0   1 22
   9   0   0   0   0   0   0   0  10   0   0   1 22
  10   0   0  10   0   0   0   0   0   0   0   1 22
   0   0   0   0   0   0   0   0   0   0   0   0 
